
Gurobi 9.5.1 (linux64) logging started Wed Mar  9 18:05:35 2022

Set parameter LogFile to value "../results/logs/log_2022_03_09_17_57.csv_10_75.log"
Set parameter Method to value 3
Gurobi Optimizer version 9.5.1 build v9.5.1rc2 (linux64)
Thread count: 8 physical cores, 8 logical processors, using up to 8 threads
Optimize a model with 157 rows, 9882 columns and 7489 nonzeros
Model fingerprint: 0xc837604b
Variable types: 4941 continuous, 4941 integer (4941 binary)
Coefficient statistics:
  Matrix range     [1e+00, 1e+01]
  Objective range  [1e+00, 1e+00]
  Bounds range     [1e+00, 1e+00]
  RHS range        [1e+00, 8e+01]
Found heuristic solution: objective -0.0000000
Presolve removed 116 rows and 9815 columns
Presolve time: 0.00s
Presolved: 41 rows, 67 columns, 215 nonzeros
Extracted 18 lazy constraints
Variable types: 31 continuous, 36 integer (35 binary)

Root relaxation: objective 4.300000e+01, 11 iterations, 0.00 seconds (0.00 work units)

    Nodes    |    Current Node    |     Objective Bounds      |     Work
 Expl Unexpl |  Obj  Depth IntInf | Incumbent    BestBd   Gap | It/Node Time

     0     0   26.49952    0   12   -0.00000   26.49952      -     -    0s
     0     0   24.24670    0   12   -0.00000   24.24670      -     -    0s
H    0     0                      23.0000000   24.24670  5.42%     -    0s
     0     0   24.20732    0    5   23.00000   24.20732  5.25%     -    0s
     0     0   24.15880    0    9   23.00000   24.15880  5.04%     -    0s
     0     0   24.04938    0    3   23.00000   24.04938  4.56%     -    0s
H    0     0                      24.0000000   24.04938  0.21%     -    0s
     0     0   24.04938    0    3   24.00000   24.04938  0.21%     -    0s

Cutting planes:
  Gomory: 3
  Lift-and-project: 1
  Implied bound: 3
  MIR: 12
  RLT: 1
  Relax-and-lift: 4
  Lazy constraints: 16

Explored 1 nodes (99 simplex iterations) in 0.02 seconds (0.01 work units)
Thread count was 8 (of 8 available processors)

Solution count 3: 24 23 -0 

Optimal solution found (tolerance 1.00e-04)
Best objective 2.400000000000e+01, best bound 2.400000000000e+01, gap 0.0000%
